 vasp.5.3.5 31Mar14 (build Feb  5 2015 19:39:53) complex

 executed on              HPCUofA date 2017.11.08  15:13:59

 INCAR:
 POTCAR:   PAW_PBE Si 05Jan2001
 POTCAR:   PAW_PBE Si 05Jan2001
   VRHFIN =Si: s2p2

   TITEL  = PAW_PBE Si 05Jan2001
   POMASS =   28.085; ZVAL   =    4.000    mass and valenz
   ENMAX  =  245.345; ENMIN  =  184.009 eV
   QCUT   =   -4.246; QGAM   =    8.493    optimization parameters

   Description
     l     E      TYP  RCUT    TYP  RCUT
     0   .000     23  1.900
     0   .000     23  1.900
     1   .000     23  1.900
     1   .000     23  1.900
     2   .000      7  1.900

 PAW_PBE Si 05Jan2001                   :

 POSCAR: fcc:
  positions in cartesian coordinates
 exchange correlation table for  LEXCH =        8
   RHO(1)=    0.500       N(1)  =     2000
   RHO(2)=  100.500       N(2)  =     4000

 ion  position               nearest neighbor table
   1  0.000  0.000  0.000-

  LATTYP: Found a face centered cubic cell.
 ALAT       =     3.4705100999

  Lattice vectors:

 A1 = (   1.7352550500,   1.7352550500,   0.0000000000)
 A2 = (   0.0000000000,   1.7352550500,   1.7352550500)
 A3 = (   1.7352550500,   0.0000000000,   1.7352550500)

Analysis of symmetry for initial positions (statically):
 Subroutine PRICEL returns:
 Original cell was already a primitive cell.

 Routine SETGRP: Setting up the symmetry group for a
 face centered cubic supercell.

 Subroutine GETGRP returns: Found 48 space group operations
 (whereof 48 operations were pure point group operations)
 out of a pool of 48 trial point group operations.

The static configuration has the point symmetry O_h .

Analysis of symmetry for dynamics (positions and initial velocities):
 Subroutine PRICEL returns:
 Original cell was already a primitive cell.

 Routine SETGRP: Setting up the symmetry group for a
 face centered cubic supercell.

 Subroutine GETGRP returns: Found 48 space group operations
 (whereof 48 operations were pure point group operations)
 out of a pool of 48 trial point group operations.

The dynamic configuration has the point symmetry O_h .

 KPOINTS: K-Points

Automatic generation of k-mesh.
Space group operators:
 irot       det(A)        alpha          n_x          n_y          n_z        tau_x        tau_y        tau_z
    1     1.000000     0.000001     1.000000     0.000000     0.000000     0.000000     0.000000     0.000000
    2    -1.000000     0.000001     1.000000     0.000000     0.000000     0.000000     0.000000     0.000000
    3     1.000000   120.000000    -0.577350    -0.577350    -0.577350     0.000000     0.000000     0.000000
    4    -1.000000   120.000000    -0.577350    -0.577350    -0.577350     0.000000     0.000000     0.000000
    5     1.000000   120.000000     0.577350     0.577350     0.577350     0.000000     0.000000     0.000000
    6    -1.000000   120.000000     0.577350     0.577350     0.577350     0.000000     0.000000     0.000000
    7     1.000000    90.000000     0.000000    -1.000000     0.000000     0.000000     0.000000     0.000000
    8    -1.000000    90.000000     0.000000    -1.000000     0.000000     0.000000     0.000000     0.000000
    9     1.000000   180.000000     0.707107     0.707107     0.000000     0.000000     0.000000     0.000000
   10    -1.000000   180.000000     0.707107     0.707107     0.000000     0.000000     0.000000     0.000000
   11     1.000000    90.000000     1.000000     0.000000     0.000000     0.000000     0.000000     0.000000
   12    -1.000000    90.000000     1.000000     0.000000     0.000000     0.000000     0.000000     0.000000
   13     1.000000   180.000000     0.000000     1.000000     0.000000     0.000000     0.000000     0.000000
   14    -1.000000   180.000000     0.000000     1.000000     0.000000     0.000000     0.000000     0.000000
   15     1.000000   120.000000     0.577350     0.577350    -0.577350     0.000000     0.000000     0.000000
   16    -1.000000   120.000000     0.577350     0.577350    -0.577350     0.000000     0.000000     0.000000
   17     1.000000   120.000000     0.577350    -0.577350    -0.577350     0.000000     0.000000     0.000000
   18    -1.000000   120.000000     0.577350    -0.577350    -0.577350     0.000000     0.000000     0.000000
   19     1.000000    90.000000     0.000000     1.000000     0.000000     0.000000     0.000000     0.000000
   20    -1.000000    90.000000     0.000000     1.000000     0.000000     0.000000     0.000000     0.000000
   21     1.000000    90.000000     0.000000     0.000000    -1.000000     0.000000     0.000000     0.000000
   22    -1.000000    90.000000     0.000000     0.000000    -1.000000     0.000000     0.000000     0.000000
   23     1.000000   180.000000     0.000000     0.707107     0.707107     0.000000     0.000000     0.000000
   24    -1.000000   180.000000     0.000000     0.707107     0.707107     0.000000     0.000000     0.000000
   25     1.000000   120.000000    -0.577350     0.577350     0.577350     0.000000     0.000000     0.000000
   26    -1.000000   120.000000    -0.577350     0.577350     0.577350     0.000000     0.000000     0.000000
   27     1.000000   120.000000    -0.577350     0.577350    -0.577350     0.000000     0.000000     0.000000
   28    -1.000000   120.000000    -0.577350     0.577350    -0.577350     0.000000     0.000000     0.000000
   29     1.000000   180.000000     0.000000     0.000000     1.000000     0.000000     0.000000     0.000000
   30    -1.000000   180.000000     0.000000     0.000000     1.000000     0.000000     0.000000     0.000000
   31     1.000000    90.000000    -1.000000     0.000000     0.000000     0.000000     0.000000     0.000000
   32    -1.000000    90.000000    -1.000000     0.000000     0.000000     0.000000     0.000000     0.000000
   33     1.000000   180.000000     0.707107     0.000000     0.707107     0.000000     0.000000     0.000000
   34    -1.000000   180.000000     0.707107     0.000000     0.707107     0.000000     0.000000     0.000000
   35     1.000000    90.000000     0.000000     0.000000     1.000000     0.000000     0.000000     0.000000
   36    -1.000000    90.000000     0.000000     0.000000     1.000000     0.000000     0.000000     0.000000
   37     1.000000   120.000000    -0.577350    -0.577350     0.577350     0.000000     0.000000     0.000000
   38    -1.000000   120.000000    -0.577350    -0.577350     0.577350     0.000000     0.000000     0.000000
   39     1.000000   180.000000     1.000000     0.000000     0.000000     0.000000     0.000000     0.000000
   40    -1.000000   180.000000     1.000000     0.000000     0.000000     0.000000     0.000000     0.000000
   41     1.000000   120.000000     0.577350    -0.577350     0.577350     0.000000     0.000000     0.000000
   42    -1.000000   120.000000     0.577350    -0.577350     0.577350     0.000000     0.000000     0.000000
   43     1.000000   180.000000     0.707107    -0.707107     0.000000     0.000000     0.000000     0.000000
   44    -1.000000   180.000000     0.707107    -0.707107     0.000000     0.000000     0.000000     0.000000
   45     1.000000   180.000000     0.707107     0.000000    -0.707107     0.000000     0.000000     0.000000
   46    -1.000000   180.000000     0.707107     0.000000    -0.707107     0.000000     0.000000     0.000000
   47     1.000000   180.000000     0.000000    -0.707107     0.707107     0.000000     0.000000     0.000000
   48    -1.000000   180.000000     0.000000    -0.707107     0.707107     0.000000     0.000000     0.000000

 Subroutine IBZKPT returns following result:

 Found     56 irreducible k-points:

 Following reciprocal coordinates:
            Coordinates               Weight
  0.000000  0.000000  0.000000      1.000000
  0.090909  0.000000  0.000000      8.000000
  0.181818  0.000000  0.000000      8.000000
  0.272727  0.000000  0.000000      8.000000
  0.363636  0.000000  0.000000      8.000000
  0.454545  0.000000  0.000000      8.000000
  0.090909  0.090909  0.000000      6.000000
  0.181818  0.090909  0.000000     24.000000
  0.272727  0.090909  0.000000     24.000000
  0.363636  0.090909  0.000000     24.000000
  0.454545  0.090909  0.000000     24.000000
 -0.454545  0.090909  0.000000     24.000000
 -0.363636  0.090909  0.000000     24.000000
 -0.272727  0.090909  0.000000     24.000000
 -0.181818  0.090909  0.000000     24.000000
 -0.090909  0.090909  0.000000     12.000000
  0.181818  0.181818  0.000000      6.000000
  0.272727  0.181818  0.000000     24.000000
  0.363636  0.181818  0.000000     24.000000
  0.454545  0.181818  0.000000     24.000000
 -0.454545  0.181818  0.000000     24.000000
 -0.363636  0.181818  0.000000     24.000000
 -0.272727  0.181818  0.000000     24.000000
 -0.181818  0.181818  0.000000     12.000000
  0.272727  0.272727  0.000000      6.000000
  0.363636  0.272727  0.000000     24.000000
  0.454545  0.272727  0.000000     24.000000
 -0.454545  0.272727  0.000000     24.000000
 -0.363636  0.272727  0.000000     24.000000
 -0.272727  0.272727  0.000000     12.000000
  0.363636  0.363636  0.000000      6.000000
  0.454545  0.363636  0.000000     24.000000
 -0.454545  0.363636  0.000000     24.000000
 -0.363636  0.363636  0.000000     12.000000
  0.454545  0.454545  0.000000      6.000000
 -0.454545  0.454545  0.000000     12.000000
  0.272727  0.181818  0.090909     24.000000
  0.363636  0.181818  0.090909     48.000000
  0.454545  0.181818  0.090909     48.000000
 -0.454545  0.181818  0.090909     48.000000
  0.363636  0.272727  0.090909     24.000000
  0.454545  0.272727  0.090909     48.000000
 -0.454545  0.272727  0.090909     48.000000
 -0.363636  0.272727  0.090909     48.000000
 -0.272727  0.272727  0.090909     48.000000
 -0.181818  0.272727  0.090909     24.000000
  0.454545  0.363636  0.090909     24.000000
 -0.454545  0.363636  0.090909     48.000000
 -0.363636  0.363636  0.090909     48.000000
 -0.272727  0.363636  0.090909     24.000000
 -0.454545  0.454545  0.090909     24.000000
 -0.363636  0.454545  0.090909     24.000000
 -0.454545  0.363636  0.181818     24.000000
 -0.363636  0.363636  0.181818     48.000000
 -0.363636  0.454545  0.181818     24.000000
 -0.272727  0.454545  0.181818     24.000000

 Following cartesian coordinates:
            Coordinates               Weight
  0.000000  0.000000  0.000000      1.000000
  0.091682  0.091682 -0.091682      8.000000
  0.183363  0.183363 -0.183363      8.000000
  0.275045  0.275045 -0.275045      8.000000
  0.366726  0.366726 -0.366726      8.000000
  0.458408  0.458408 -0.458408      8.000000
  0.000000  0.183363  0.000000      6.000000
  0.091682  0.275045 -0.091682     24.000000
  0.183363  0.366726 -0.183363     24.000000
  0.275045  0.458408 -0.275045     24.000000
  0.366726  0.550089 -0.366726     24.000000
 -0.550089 -0.366726  0.550089     24.000000
 -0.458408 -0.275045  0.458408     24.000000
 -0.366726 -0.183363  0.366726     24.000000
 -0.275045 -0.091682  0.275045     24.000000
 -0.183363  0.000000  0.183363     12.000000
  0.000000  0.366726  0.000000      6.000000
  0.091682  0.458408 -0.091682     24.000000
  0.183363  0.550089 -0.183363     24.000000
[...]

 k-points in units of 2pi/SCALE and weight: K-Points
   0.00000000  0.00000000  0.00000000       0.001
   0.09168157  0.09168157 -0.09168157       0.006
   0.18336314  0.18336314 -0.18336314       0.006
   0.27504471  0.27504471 -0.27504471       0.006
   0.36672628  0.36672628 -0.36672628       0.006
   0.45840786  0.45840786 -0.45840786       0.006
   0.00000000  0.18336314  0.00000000       0.005
   0.09168157  0.27504471 -0.09168157       0.018
   0.18336314  0.36672628 -0.18336314       0.018
   0.27504471  0.45840786 -0.27504471       0.018
   0.36672628  0.55008943 -0.36672628       0.018
  -0.55008943 -0.36672628  0.55008943       0.018
  -0.45840786 -0.27504471  0.45840786       0.018
  -0.36672628 -0.18336314  0.36672628       0.018
  -0.27504471 -0.09168157  0.27504471       0.018
  -0.18336314  0.00000000  0.18336314       0.009
   0.00000000  0.36672628  0.00000000       0.005
   0.09168157  0.45840786 -0.09168157       0.018
   0.18336314  0.55008943 -0.18336314       0.018
   0.27504471  0.64177100 -0.27504471       0.018
  -0.64177100 -0.27504471  0.64177100       0.018
  -0.55008943 -0.18336314  0.55008943       0.018
  -0.45840786 -0.09168157  0.45840786       0.018
  -0.36672628  0.00000000  0.36672628       0.009
   0.00000000  0.55008943  0.00000000       0.005
   0.09168157  0.64177100 -0.09168157       0.018
   0.18336314  0.73345257 -0.18336314       0.018
  -0.73345257 -0.18336314  0.73345257       0.018
  -0.64177100 -0.09168157  0.64177100       0.018
  -0.55008943  0.00000000  0.55008943       0.009
   0.00000000  0.73345257  0.00000000       0.005
   0.09168157  0.82513414 -0.09168157       0.018
  -0.82513414 -0.09168157  0.82513414       0.018
  -0.73345257  0.00000000  0.73345257       0.009
   0.00000000  0.91681571  0.00000000       0.005
  -0.91681571 -0.00000000  0.91681571       0.009
   0.18336314  0.36672628 -0.00000000       0.018
   0.27504471  0.45840786 -0.09168157       0.036
   0.36672628  0.55008943 -0.18336314       0.036
  -0.55008943 -0.36672628  0.73345257       0.036
   0.18336314  0.55008943 -0.00000000       0.018
   0.27504471  0.64177100 -0.09168157       0.036
  -0.64177100 -0.27504471  0.82513414       0.036
  -0.55008943 -0.18336314  0.73345257       0.036
  -0.45840786 -0.09168157  0.64177100       0.036
  -0.36672628  0.00000000  0.55008943       0.018
   0.18336314  0.73345257 -0.00000000       0.018
  -0.73345257 -0.18336314  0.91681571       0.036
  -0.64177100 -0.09168157  0.82513414       0.036
  -0.55008943  0.00000000  0.73345257       0.018
  -0.82513414 -0.09168157  1.00849728       0.018
  -0.73345257  0.00000000  0.91681571       0.018
  -0.64177100 -0.27504471  1.00849728       0.018
  -0.55008943 -0.18336314  0.91681571       0.036
  -0.64177100 -0.09168157  1.00849728       0.018
  -0.55008943  0.00000000  0.91681571       0.018

 k-points in reciprocal lattice and weights: K-Points
   0.00000000  0.00000000  0.00000000       0.001
   0.09090909  0.00000000  0.00000000       0.006
   0.18181818  0.00000000  0.00000000       0.006
   0.27272727  0.00000000  0.00000000       0.006
   0.36363636  0.00000000  0.00000000       0.006
   0.45454545  0.00000000  0.00000000       0.006
   0.09090909  0.09090909  0.00000000       0.005
   0.18181818  0.09090909  0.00000000       0.018
   0.27272727  0.09090909  0.00000000       0.018
   0.36363636  0.09090909  0.00000000       0.018
   0.45454545  0.09090909  0.00000000       0.018
  -0.45454545  0.09090909  0.00000000       0.018
  -0.36363636  0.09090909  0.00000000       0.018
  -0.27272727  0.09090909  0.00000000       0.018
  -0.18181818  0.09090909  0.00000000       0.018
  -0.09090909  0.09090909  0.00000000       0.009
   0.18181818  0.18181818  0.00000000       0.005
   0.27272727  0.18181818  0.00000000       0.018
   0.36363636  0.18181818  0.00000000       0.018
   0.45454545  0.18181818  0.00000000       0.018
  -0.45454545  0.18181818  0.00000000       0.018
  -0.36363636  0.18181818  0.00000000       0.018
  -0.27272727  0.18181818  0.00000000       0.018
  -0.18181818  0.18181818  0.00000000       0.009
   0.27272727  0.27272727  0.00000000       0.005
   0.36363636  0.27272727  0.00000000       0.018
   0.45454545  0.27272727  0.00000000       0.018
  -0.45454545  0.27272727  0.00000000       0.018
  -0.36363636  0.27272727  0.00000000       0.018
  -0.27272727  0.27272727  0.00000000       0.009
   0.36363636  0.36363636  0.00000000       0.005
   0.45454545  0.36363636  0.00000000       0.018
  -0.45454545  0.36363636  0.00000000       0.018
  -0.36363636  0.36363636  0.00000000       0.009
   0.45454545  0.45454545  0.00000000       0.005
  -0.45454545  0.45454545  0.00000000       0.009
   0.27272727  0.18181818  0.09090909       0.018
   0.36363636  0.18181818  0.09090909       0.036
   0.45454545  0.18181818  0.09090909       0.036
  -0.45454545  0.18181818  0.09090909       0.036
   0.36363636  0.27272727  0.09090909       0.018
   0.45454545  0.27272727  0.09090909       0.036
  -0.45454545  0.27272727  0.09090909       0.036
  -0.36363636  0.27272727  0.09090909       0.036
  -0.27272727  0.27272727  0.09090909       0.036
  -0.18181818  0.27272727  0.09090909       0.018
   0.45454545  0.36363636  0.09090909       0.018
  -0.45454545  0.36363636  0.09090909       0.036
  -0.36363636  0.36363636  0.09090909       0.036
  -0.27272727  0.36363636  0.09090909       0.018
  -0.45454545  0.45454545  0.09090909       0.018
  -0.36363636  0.45454545  0.09090909       0.018
  -0.45454545  0.36363636  0.18181818       0.018
  -0.36363636  0.36363636  0.18181818       0.036
  -0.36363636  0.45454545  0.18181818       0.018
  -0.27272727  0.45454545  0.18181818       0.018

 position of ions in fractional coordinates (direct lattice)
   0.00000000  0.00000000  0.00000000

 position of ions in cartesian coordinates  (Angst):
   0.00000000  0.00000000  0.00000000

 k-point  1 :   0.0000 0.0000 0.0000  plane waves:      89
 k-point  2 :   0.0909 0.0000 0.0000  plane waves:      89
 k-point  3 :   0.1818 0.0000 0.0000  plane waves:      83
 k-point  4 :   0.2727 0.0000 0.0000  plane waves:      89
 k-point  5 :   0.3636 0.0000 0.0000  plane waves:      89
 k-point  6 :   0.4545 0.0000 0.0000  plane waves:      89
 k-point  7 :   0.0909 0.0909 0.0000  plane waves:      81
 k-point  8 :   0.1818 0.0909 0.0000  plane waves:      85
 k-point  9 :   0.2727 0.0909 0.0000  plane waves:      85
 k-point 10 :   0.3636 0.0909 0.0000  plane waves:      85
 k-point 11 :   0.4545 0.0909 0.0000  plane waves:      87
 k-point 12 :  -0.4545 0.0909 0.0000  plane waves:      86
 k-point 13 :  -0.3636 0.0909 0.0000  plane waves:      86
 k-point 14 :  -0.2727 0.0909 0.0000  plane waves:      89
 k-point 15 :  -0.1818 0.0909 0.0000  plane waves:      87
 k-point 16 :  -0.0909 0.0909 0.0000  plane waves:      85
 k-point 17 :   0.1818 0.1818 0.0000  plane waves:      85
 k-point 18 :   0.2727 0.1818 0.0000  plane waves:      86
 k-point 19 :   0.3636 0.1818 0.0000  plane waves:      85
 k-point 20 :   0.4545 0.1818 0.0000  plane waves:      87
 k-point 21 :  -0.4545 0.1818 0.0000  plane waves:      89
 k-point 22 :  -0.3636 0.1818 0.0000  plane waves:      88
 k-point 23 :  -0.2727 0.1818 0.0000  plane waves:      85
 k-point 24 :  -0.1818 0.1818 0.0000  plane waves:      87
 k-point 25 :   0.2727 0.2727 0.0000  plane waves:      84
 k-point 26 :   0.3636 0.2727 0.0000  plane waves:      84
 k-point 27 :   0.4545 0.2727 0.0000  plane waves:      89
 k-point 28 :  -0.4545 0.2727 0.0000  plane waves:      90
 k-point 29 :  -0.3636 0.2727 0.0000  plane waves:      90
 k-point 30 :  -0.2727 0.2727 0.0000  plane waves:      89
 k-point 31 :   0.3636 0.3636 0.0000  plane waves:      88
 k-point 32 :   0.4545 0.3636 0.0000  plane waves:      89
 k-point 33 :  -0.4545 0.3636 0.0000  plane waves:      94
 k-point 34 :  -0.3636 0.3636 0.0000  plane waves:      89
 k-point 35 :   0.4545 0.4545 0.0000  plane waves:      92
 k-point 36 :  -0.4545 0.4545 0.0000  plane waves:      92
 k-point 37 :   0.2727 0.1818 0.0909  plane waves:      86
 k-point 38 :   0.3636 0.1818 0.0909  plane waves:      87
 k-point 39 :   0.4545 0.1818 0.0909  plane waves:      85
 k-point 40 :  -0.4545 0.1818 0.0909  plane waves:      87
 k-point 41 :   0.3636 0.2727 0.0909  plane waves:      83
 k-point 42 :   0.4545 0.2727 0.0909  plane waves:      87
 k-point 43 :  -0.4545 0.2727 0.0909  plane waves:      87
 k-point 44 :  -0.3636 0.2727 0.0909  plane waves:      91
 k-point 45 :  -0.2727 0.2727 0.0909  plane waves:      89
 k-point 46 :  -0.1818 0.2727 0.0909  plane waves:      88
 k-point 47 :   0.4545 0.3636 0.0909  plane waves:      88
 k-point 48 :  -0.4545 0.3636 0.0909  plane waves:      92
 k-point 49 :  -0.3636 0.3636 0.0909  plane waves:      92
 k-point 50 :  -0.2727 0.3636 0.0909  plane waves:      90
 k-point 51 :  -0.4545 0.4545 0.0909  plane waves:      92
 k-point 52 :  -0.3636 0.4545 0.0909  plane waves:      91
 k-point 53 :  -0.4545 0.3636 0.1818  plane waves:      90
 k-point 54 :  -0.3636 0.3636 0.1818  plane waves:      91
 k-point 55 :  -0.3636 0.4545 0.1818  plane waves:      90
 k-point 56 :  -0.2727 0.4545 0.1818  plane waves:      92

 maximum and minimum number of plane-waves per node :        94       81

 maximum number of plane-waves:        94
 maximum index in each direction:
   IXMAX=    3   IYMAX=    3   IZMAX=    3
   IXMIN=   -3   IYMIN=   -3   IZMIN=   -3

 WARNING: aliasing errors must be expected set NGX to  14 to avoid them
 WARNING: aliasing errors must be expected set NGY to  14 to avoid them
 WARNING: aliasing errors must be expected set NGZ to  14 to avoid them
 aliasing errors are usually negligible using standard VASP settings
 and one can safely disregard these warnings

 serial   3D FFT for wavefunctions
 parallel 3D FFT for charge:
    minimum data exchange during FFTs selected (reduces bandwidth)

 Broyden mixing: mesh for mixing (old mesh)
   NGX =  7   NGY =  7   NGZ =  7
  (NGX  = 20   NGY  = 20   NGZ  = 20)
  gives a total of    343 points

 initial charge density was supplied:
 charge density of overlapping atoms calculated
 number of electron       4.0000000 magnetization
 keeping initial charge density in first step

 Maximum index for augmentation-charges         3055 (set IRDMAX)

 First call to EWALD:  gamma=   0.811
 Maximum number of real-space cells 3x 3x 3
 Maximum number of reciprocal cells 3x 3x 3

 FEWALD executed in parallel

----------------------------------------- Iteration    1(   1)  ---------------------------------------

 eigenvalue-minimisations  :   792
 total energy-change (2. order) :-0.3385500E+01  (-0.1383230E+03)
 number of electron       4.0000000 magnetization
 augmentation part        4.0000000 magnetization

 Free energy of the ion-electron system (eV)
  alpha Z        PSCENC =         3.22132010
  Ewald energy   TEWEN  =      -152.18751399
  -Hartree energ DENC   =        -0.19283471
  -exchange      EXHF   =         0.00000000
  -V(xc)+E(xc)   XCENC  =        -7.86680736
  PAW double counting   =        32.97760406      -15.38426339
  entropy T*S    EENTRO =        -0.00123970
  eigenvalues    EBANDS =        32.98745819
  atomic energy  EATOM  =       103.06077658
  free energy    TOTEN  =        -3.38550022 eV

  energy without entropy =       -3.38426052  energy(sigma->0) =       -3.38488037

[...]

 eigenvalue-minimisations  :   732
 total energy-change (2. order) :-0.5044001E-09  (-0.1812895E-09)
 number of electron       4.0000004 magnetization
 augmentation part       -0.2263181 magnetization

 Broyden mixing:
  rms(total) = 0.11194E+00    rms(broyden)= 0.11193E+00
  rms(prec ) = 0.43950E+00
  weight for this iteration     100.00

[...]

 eigenvalue-minimisations  :   726
 total energy-change (2. order) : 0.2748433E-01  (-0.3582319E-03)
 number of electron       4.0000004 magnetization
 augmentation part       -0.2284697 magnetization

[...]

 eigenvalues of (default mixing * dielectric matrix)
  average eigenvalue GAMMA=   2.5226
  2.5226

[...]

 Broyden mixing:
  rms(total) = 0.27738E-02    rms(broyden)= 0.27728E-02
  rms(prec ) = 0.80904E-02
  weight for this iteration     100.00

 eigenvalues of (default mixing * dielectric matrix)
  average eigenvalue GAMMA=   2.5554
  2.5554  2.5554

[...]

----------------------------------------- Iteration    1(   8)  ---------------------------------------

 eigenvalue-minimisations  :   642
 total energy-change (2. order) : 0.1154768E-04  (-0.1920170E-05)
 number of electron       4.0000004 magnetization
 augmentation part       -0.2320268 magnetization

 Free energy of the ion-electron system (eV)
  alpha Z        PSCENC =         3.22132010
  Ewald energy   TEWEN  =      -152.18751399
  -Hartree energ DENC   =        -0.26953421
  -exchange      EXHF   =         0.00000000
  -V(xc)+E(xc)   XCENC  =        -7.68956939
  PAW double counting   =        37.28463267      -19.78538362
  entropy T*S    EENTRO =        -0.00253737
  eigenvalues    EBANDS =        32.03119420
  atomic energy  EATOM  =       103.06077658
  free energy    TOTEN  =        -4.33661504 eV

  energy without entropy =       -4.33407767  energy(sigma->0) =       -4.33534635

 average (electrostatic) potential at core
  the test charge radii are     0.9892
  (the norm of the test charge is              1.0000)
       1 -75.0258

 E-fermi :  15.0896     XC(G=0): -12.5631     alpha+bet :-22.9515

 k-point     1 :       0.0000    0.0000    0.0000
  band No.  band energies     occupation
      1      -2.7569      2.00000
      2      28.5265      0.00000
      3      28.5266      0.00000
      4      28.5266      0.00000
      5      30.7415      0.00000
      6      30.7416      0.00000

[...]

 k-point    56 :      -0.2727    0.4545    0.1818
  band No.  band energies     occupation
      1      10.0884      2.00000
      2      10.3668      2.00000
      3      12.5280      2.00000
      4      15.1366      0.50666
      5      30.5557      0.00000
      6      34.3028      0.00000

 soft charge-density along one line, spin component           1
         0         1         2         3         4         5         6         7         8         9
 total charge-density along one line

------------------------ aborting loop because EDIFF is reached ----------------------------------------

  FORCE on cell =-STRESS in cart. coord.  units (eV):
  Direction    XX          YY          ZZ          XY          YZ          ZX
  Alpha Z     3.22132     3.22132     3.22132
  Ewald     -50.72917   -50.72917   -50.72917     0.00000    -0.00000     0.00000
  Hartree     0.09030     0.09030     0.09030     0.00000     0.00000     0.00000
  E(xc)     -13.94009   -13.94009   -13.94009    -0.00000    -0.00000    -0.00000
  Local      -2.67092    -2.67092    -2.67092     0.00003     0.00003     0.00003
  n-local    39.59700    36.51861    40.63508    -2.15657     1.58572     2.90591
  augment    -5.85720    -5.85720    -5.85720    -0.00004    -0.00004    -0.00003
  Kinetic    24.96965    48.29044    29.87505    12.98093   -10.68124   -19.59032
  Fock        0.00000     0.00000     0.00000     0.00000     0.00000     0.00000
  Total       3.40952     3.40952     3.40952    -0.00000     0.00000    -0.00000
  in kB     522.73826   522.73826   522.73826    -0.00000     0.00000    -0.00000

 VOLUME and BASIS-vectors are now :
  energy-cutoff  :      240.00
  volume of cell :       10.45
      direct lattice vectors                 reciprocal lattice vectors
     1.735255050  1.735255050  0.000000000     0.288142080  0.288142080 -0.288142080
     0.000000000  1.735255050  1.735255050    -0.288142080  0.288142080  0.288142080
     1.735255050  0.000000000  1.735255050     0.288142080 -0.288142080  0.288142080

  length of vectors
     2.454021226  2.454021226  2.454021226     0.499076723  0.499076723  0.499076723

 FORCES acting on ions
    electron-ion (+dipol)            ewald-force                    non-local-force                 convergence-correction
   -.157E-15 -.127E-14 0.448E-15   0.102E-15 0.289E-15 -.406E-16   0.000E+00 -.165E-23 0.000E+00   -.701E-17 -.113E-17 0.210E-16
   -.157E-15 -.127E-14 0.448E-15   0.102E-15 0.289E-15 -.406E-16   0.000E+00 -.165E-23 0.000E+00   -.701E-17 -.113E-17 0.210E-16

 POSITION                                       TOTAL-FORCE (eV/Angst)
      0.00000      0.00000      0.00000        -0.000000      0.000000     -0.000000
    total drift:                               -0.000000     -0.000000      0.000000

  FREE ENERGIE OF THE ION-ELECTRON SYSTEM (eV)
  free  energy   TOTEN  =        -4.33661504 eV

  energy  without entropy=       -4.33407767  energy(sigma->0) =       -4.33534635

 reached required accuracy - stopping structural energy minimisation
 writing wavefunctions